SECTION Graph
Nodes 160
Edges 159

E 1 10 292
E 1 26 291
E 2 3 283
E 3 27 289
E 4 28 289
E 4 131 291
E 5 22 290
E 5 79 290
E 5 87 290
E 6 134 290
E 6 150 288
E 7 94 291
E 8 15 289
E 8 28 289
E 8 78 291
E 9 59 290
E 9 93 288
E 10 125 290
E 11 46 291
E 12 39 291
E 12 119 284
E 13 66 290
E 14 18 291
E 14 19 288
E 14 159 290
E 15 76 290
E 16 40 293
E 16 147 289
E 17 128 289
E 18 152 290
E 19 52 291
E 19 55 290
E 19 158 291
E 20 51 290
E 20 62 291
E 20 71 291
E 21 51 291
E 23 32 291
E 23 94 290
E 24 85 291
E 24 91 285
E 24 150 289
E 25 89 290
E 26 60 287
E 26 97 292
E 27 46 291
E 27 132 290
E 28 73 291
E 28 157 292
E 29 68 285
E 29 122 291
E 30 159 288
E 31 43 290
E 31 143 291
E 32 133 291
E 33 37 289
E 33 67 291
E 34 103 293
E 35 143 293
E 36 103 291
E 37 54 290
E 37 80 286
E 37 86 291
E 37 110 285
E 38 70 291
E 39 116 290
E 40 45 289
E 41 88 290
E 41 104 289
E 42 127 290
E 43 89 292
E 43 106 293
E 44 71 288
E 44 153 291
E 45 61 287
E 45 129 287
E 46 107 287
E 46 153 290
E 47 101 287
E 47 125 287
E 48 84 289
E 49 53 290
E 49 56 292
E 49 112 286
E 50 62 288
E 50 141 290
E 52 100 291
E 52 137 287
E 52 160 291
E 53 69 289
E 53 121 293
E 53 148 289
E 54 126 290
E 57 118 291
E 58 64 286
E 58 68 291
E 59 122 291
E 61 103 289
E 63 79 290
E 64 139 292
E 65 87 292
E 66 79 288
E 69 75 290
E 69 137 290
E 70 73 279
E 72 99 286
E 74 119 292
E 75 138 293
E 77 83 291
E 77 92 292
E 77 114 289
E 79 82 291
E 79 159 290
E 80 133 287
E 81 148 289
E 83 84 292
E 83 151 289
E 84 98 285
E 84 115 283
E 88 90 291
E 88 142 290
E 88 156 289
E 94 122 290
E 94 143 287
E 94 155 289
E 95 104 288
E 96 132 293
E 98 105 291
E 99 131 291
E 101 136 291
E 101 154 286
E 102 119 290
E 103 146 291
E 104 115 288
E 104 153 288
E 108 126 292
E 108 135 288
E 109 113 291
E 110 111 291
E 112 117 290
E 112 131 287
E 112 154 289
E 113 160 288
E 115 134 290
E 116 133 291
E 118 155 290
E 119 124 292
E 120 127 292
E 120 154 285
E 123 130 293
E 123 150 293
E 128 145 288
E 128 153 291
E 129 137 287
E 131 156 290
E 135 144 291
E 135 149 292
E 140 155 291
E 154 155 290
END
SECTION Terminals
T 1
T 2
T 3
T 4
T 5
T 6
T 7
T 8
T 9
T 10
T 11
T 12
T 13
T 14
T 15
T 16
T 17
T 18
T 19
T 20
T 21
T 22
T 23
T 24
T 25
T 26
T 27
T 28
T 29
T 30
T 31
T 32
T 33
T 34
T 35
T 36
T 37
T 38
T 39
T 40
T 41
T 42
T 43
T 44
T 45
T 46
T 47
T 48
T 49
T 50
T 51
T 52
T 53
T 54
T 55
T 56
T 57
T 58
T 59
T 60
T 61
T 62
T 63
T 64
T 65
T 66
T 67
T 68
T 69
T 70
T 71
T 72
T 73
T 74
T 75
T 76
T 77
T 78
T 79
T 80
T 81
T 82
T 83
T 84
T 85
T 86
T 87
T 88
T 89
T 90
T 91
T 92
T 93
T 94
T 95
T 96
T 97
T 98
T 99
T 100
T 101
T 102
T 103
T 104
T 105
T 106
T 107
T 108
T 109
T 110
T 111
T 112
T 113
T 114
T 115
T 116
T 117
T 118
T 119
T 120
T 121
T 122
T 123
T 124
T 125
T 126
T 127
T 128
T 129
T 130
T 131
T 132
T 133
T 134
T 135
T 136
T 137
T 138
T 139
T 140
T 141
T 142
T 143
T 144
T 145
T 146
T 147
T 148
T 149
T 150
T 151
T 152
T 153
T 154
T 155
T 156
T 157
T 158
T 159
T 160
END
SECTION Cost
46052
END
